500
[51,56,60,61,64,81,97,98,104,107,109,116,118,121,133,152,153,161,168,192,193,196,201,211,216,224,232,233,236,237,242,246,249,257,263,265,269,275,279,281,289,294,296,309,319,326,329,337]
[2,1,1,1,1,1,1,1,1,1,1,1,1,1,1,1,1,1,1,1,1,1,1,1,1,1,1,1,1,1,1,1,1,1,1,1,1,1,1,1,1,1,2,1,1,1,1,1]
